s td 170 15 227
b 1 2 63 94 121 180
b 2 28 178 204 208 220
b 3 46 47 159 204 208
b 4 35 48 134 179 224
b 5 27 39 71 214 221
b 6 75 140 146 163 177
b 7 74 79 96 126 192
b 8 12 87 137 168 189
b 9 88 93 127 183 190
b 10 40 44 49 90 207
b 11 30 84 95 100 114
b 12 22 85 130 136 169
b 13 19 70 115 143 186
b 14 32 52 94 135 156
b 15 69 119 158 175 211
b 16 15 76 153 160 222
b 17 38 170 191 202 226
b 18 134 171 179 196 224
b 19 15 59 151 174 213
b 20 19 145 147 184 212
b 21 50 80 116 164 187
b 22 55 56 150 188 206
b 23 15 59 151 162 194
b 24 15 59 151 162 213
b 25 77 167 195 198 215
b 26 100 110 181 203 214
b 27 35 133 179 205 217
b 28 7 16 31 142 223
b 29 18 82 181 182 225
b 30 68 105 133 201 227
b 31 1 40 44 207 213
b 32 40 44 49 207 213
b 33 3 35 103 133 217
b 34 35 103 133 179 217
b 35 35 133 179 217
b 36 5 26 45 85 106
b 37 10 26 45 85 106
b 38 10 26 85 106 151
b 39 6 67 83 102 149
b 40 67 83 102 136 149
b 41 67 102 136 146 149
b 42 7 16 31 142 166
b 43 16 31 97 142 166
b 44 11 14 55 56 150
b 45 11 55 56 150 206
b 46 17 50 52 80 116
b 47 50 52 80 116 164
b 48 18 82 147 181 182
b 49 82 112 147 181 182
b 50 20 39 136 214 221
b 51 27 39 136 214 221
b 52 21 100 108 144 172
b 53 22 85 86 136 169
b 54 85 86 133 136 169
b 55 29 33 105 133 201
b 56 33 68 105 133 201
b 57 33 105 133 201
b 58 30 84 100 114 183
b 59 84 100 114 183 208
b 60 15 51 151 153 222
b 61 15 76 151 153 222
b 62 15 151 153 222
b 63 15 151 213
b 64 33 62 107 152 178
b 65 61 65 91 210 219
b 66 24 61 91 210 219
b 67 24 61 91 101 219
b 68 42 69 119 175 211
b 69 42 115 119 175 211
b 70 37 47 73 104 215
b 71 9 37 47 104 142 215
b 72 37 47 104 142 215
b 73 74 96 126 135 192
b 74 96 109 126 135 192
b 75 77 120 167 198 215
b 76 120 140 167 198 215
b 77 38 81 131 141 176
b 78 8 38 131 141 176
b 79 8 34 38 131 176
b 80 23 53 89 128 132
b 81 23 53 128 132 197
b 82 23 53 132 175 197
b 83 93 127 183 185 190
b 84 11 127 183 185 190
b 85 41 72 98 161 221
b 86 41 72 132 161 221
b 87 40 41 72 132 221
b 88 99 110 181 214 224
b 89 100 110 181 214 224
b 90 4 66 100 108 144 172
b 91 70 111 115 138 186
b 92 19 70 115 138 186
b 93 60 78 113 132 190 197
b 94 60 78 132 148 190 197
b 95 32 52 117 135 147
b 96 32 52 94 135 147
b 97 25 107 118 151 213
b 98 25 66 91 107 151 213
b 99 63 94 121 173 180
b 100 4 63 94 173 180
b 101 84 97 122 126 134 183
b 102 19 23 123 147 212
b 103 19 23 145 147 212
b 104 19 23 147 212
b 105 47 92 124 159 208
b 106 47 92 159 204 208
b 107 34 57 64 97 125
b 108 8 34 57 64 66 97
b 109 92 97 129 154 193
b 110 139 146 163 177 196
b 111 140 146 163 177 196
b 112 33 37 82 107 152 178
b 113 38 155 165 191 202
b 114 38 165 191 202 226
b 115 38 191 202 226
b 116 8 34 38 191
b 117 36 50 134 157 214
b 118 36 42 50 58 134 214
b 119 12 47 137 168 189
b 120 12 47 135 137 168
b 121 92 97 154 172 182 193
b 122 43 54 97 154 199
b 123 43 54 97 148 154 163
b 124 27 43 197 200 218
b 125 27 43 191 197 218
b 126 13 101 147 209 216
b 127 13 101 147 150 204 216
b 128 11 150 183 190
b 129 19 23 115 147
b 130 8 34 66 97 191
b 131 40 132 213 221
b 132 85 133 136 151
b 133 12 47 84 97 100 107 133 135 147 154 172 181 183 204 215
b 134 50 84 97 100 107 133 134 135 147 154 172 181 183 204 215
b 135 50 66 97 100 107 133 134 135 147 154 172 181 183 204 215
b 136 50 66 97 100 107 133 134 147 154 181 183 204 214 215 224
b 137 50 66 97 107 133 134 147 154 183 196 204 214 215 224
b 138 42 50 66 97 107 133 134 147 154 183 196 204 214 215
b 139 42 66 91 97 107 133 147 154 183 190 196 204 214 215
b 140 42 66 91 97 107 133 147 151 154 190 196 213 214 215
b 141 42 66 97 133 136 147 151 154 190 196 213 214 215
b 142 42 66 97 136 147 154 163 190 196 213 214 215
b 143 27 42 66 97 136 147 154 163 190 213 214 221
b 144 27 42 66 97 132 147 154 163 190 213 221
b 145 27 42 66 97 132 147 154 163 190 197
b 146 27 43 66 97 132 154 163 190 197
b 147 43 97 132 148 154 163 190 197
b 148 136 146 163 196 215
b 149 140 146 163 196 215
b 150 91 147 150 183 190 204
b 151 50 66 94 100 135 147 172
b 152 50 84 97 126 134 135 183
b 153 12 47 84 97 100 107 133 147 154 172 181 183 204 208 215
b 154 12 47 82 97 100 107 133 147 154 172 181 204 208 215
b 155 12 37 47 82 97 100 107 133 204 208 215
b 156 12 37 82 100 107 133 178 204 208
b 157 33 37 82 107 133 178
b 158 12 100 178 204 208 220
b 159 47 82 97 147 154 172 181 182 204 208
b 160 47 92 97 154 172 182 204 208
b 161 4 66 94 100 172
b 162 35 133 134 179 196 224
b 163 133 134 179 196 224
b 164 50 52 94 135 147
b 165 91 101 147 150 204
b 166 23 42 115 147 175
b 167 23 42 132 147 175 197
b 168 37 47 97 142 215
b 169 8 27 43 66 97 191 197
b 170 27 43 66 97 191 197
1 99
2 158
3 106
4 162
5 51
6 111
7 73
8 119
9 83
10 32
11 58
12 53
13 92
14 96
15 68
16 61
17 115
18 163
19 24
20 103
21 47
22 45
23 24
24 63
25 75
26 89
27 35
28 42
29 48
30 56
31 32
32 131
33 34
34 35
35 162
36 37
37 38
38 132
39 40
40 41
41 148
42 43
43 168
44 45
45 128
46 47
47 164
48 159
49 159
50 51
51 143
52 90
53 54
54 132
55 57
56 57
57 157
58 59
59 153
60 62
61 62
62 63
63 140
64 112
65 66
66 67
67 165
68 69
69 166
70 72
71 72
72 168
73 74
74 152
75 76
76 149
77 78
78 79
79 116
80 81
81 82
82 167
83 84
84 128
85 86
86 87
87 131
88 89
89 136
90 161
91 92
92 129
93 94
94 147
95 96
96 164
97 98
98 140
99 100
100 161
101 152
102 104
103 104
104 129
105 106
106 160
107 108
108 130
109 121
110 111
111 149
112 157
113 114
114 115
115 116
116 130
117 118
118 138
119 120
120 133
121 160
122 123
123 147
124 125
125 169
126 127
127 165
128 150
129 166
130 169
131 144
132 141
133 134
133 153
134 135
134 152
135 136
135 151
136 137
137 163
137 138
138 139
139 140
139 150
140 141
141 142
142 143
142 148
143 144
144 145
145 167
145 146
146 169
146 147
148 149
150 165
151 161
151 164
153 154
154 155
154 159
155 168
155 156
156 157
156 158
159 160
162 163
166 167
169 170
